# Solution for model runway_allocation
# Objective value = 9.5251678993386946e+01
x0_0_0 0
x0_0_60 0
x0_0_120 0
x0_0_180 0
x0_0_240 0
x0_0_300 0
x0_0_360 0
x0_0_420 0
x0_0_480 0
x0_0_540 0
x0_1_0 0
x0_1_60 0
x0_1_120 0
x0_1_180 0
x0_1_240 0
x0_1_300 0
x0_1_360 0
x0_1_420 0
x0_1_480 0
x0_1_540 0
x0_2_0 1
x0_2_60 0
x0_2_120 0
x0_2_180 0
x0_2_240 0
x0_2_300 0
x0_2_360 0
x0_2_420 0
x0_2_480 0
x0_2_540 0
x1_0_0 1
x1_0_60 0
x1_0_120 0
x1_0_180 0
x1_0_240 0
x1_0_300 0
x1_0_360 0
x1_0_420 0
x1_0_480 0
x1_0_540 0
x1_1_0 0
x1_1_60 0
x1_1_120 0
x1_1_180 0
x1_1_240 0
x1_1_300 0
x1_1_360 0
x1_1_420 0
x1_1_480 0
x1_1_540 0
x1_2_0 0
x1_2_60 0
x1_2_120 0
x1_2_180 0
x1_2_240 0
x1_2_300 0
x1_2_360 0
x1_2_420 0
x1_2_480 0
x1_2_540 0
x2_0_0 0
x2_0_60 0
x2_0_120 0
x2_0_180 0
x2_0_240 0
x2_0_300 0
x2_0_360 0
x2_0_420 0
x2_0_480 0
x2_0_540 0
x2_1_0 1
x2_1_60 0
x2_1_120 0
x2_1_180 0
x2_1_240 0
x2_1_300 0
x2_1_360 0
x2_1_420 0
x2_1_480 0
x2_1_540 0
x2_2_0 0
x2_2_60 0
x2_2_120 0
x2_2_180 0
x2_2_240 0
x2_2_300 0
x2_2_360 0
x2_2_420 0
x2_2_480 0
x2_2_540 0
x3_0_0 0
x3_0_60 0
x3_0_120 0
x3_0_180 0
x3_0_240 0
x3_0_300 0
x3_0_360 0
x3_0_420 0
x3_0_480 0
x3_0_540 0
x3_1_0 0
x3_1_60 0
x3_1_120 0
x3_1_180 0
x3_1_240 1
x3_1_300 0
x3_1_360 0
x3_1_420 0
x3_1_480 0
x3_1_540 0
x3_2_0 0
x3_2_60 0
x3_2_120 0
x3_2_180 0
x3_2_240 0
x3_2_300 0
x3_2_360 0
x3_2_420 0
x3_2_480 0
x3_2_540 0
x4_0_0 0
x4_0_60 0
x4_0_120 0
x4_0_180 0
x4_0_240 0
x4_0_300 0
x4_0_360 0
x4_0_420 0
x4_0_480 0
x4_0_540 0
x4_1_0 0
x4_1_60 1
x4_1_120 0
x4_1_180 0
x4_1_240 0
x4_1_300 0
x4_1_360 0
x4_1_420 0
x4_1_480 0
x4_1_540 0
x4_2_0 0
x4_2_60 0
x4_2_120 0
x4_2_180 0
x4_2_240 0
x4_2_300 0
x4_2_360 0
x4_2_420 0
x4_2_480 0
x4_2_540 0
x5_0_0 0
x5_0_60 0
x5_0_120 0
x5_0_180 0
x5_0_240 0
x5_0_300 0
x5_0_360 0
x5_0_420 0
x5_0_480 0
x5_0_540 0
x5_1_0 0
x5_1_60 0
x5_1_120 0
x5_1_180 0
x5_1_240 0
x5_1_300 0
x5_1_360 0
x5_1_420 0
x5_1_480 0
x5_1_540 0
x5_2_0 1
x5_2_60 0
x5_2_120 0
x5_2_180 0
x5_2_240 0
x5_2_300 0
x5_2_360 0
x5_2_420 0
x5_2_480 0
x5_2_540 0
x6_0_0 1
x6_0_60 0
x6_0_120 0
x6_0_180 0
x6_0_240 0
x6_0_300 0
x6_0_360 0
x6_0_420 0
x6_0_480 0
x6_0_540 0
x6_1_0 0
x6_1_60 0
x6_1_120 0
x6_1_180 0
x6_1_240 0
x6_1_300 0
x6_1_360 0
x6_1_420 0
x6_1_480 0
x6_1_540 0
x6_2_0 0
x6_2_60 0
x6_2_120 0
x6_2_180 0
x6_2_240 0
x6_2_300 0
x6_2_360 0
x6_2_420 0
x6_2_480 0
x6_2_540 0
x7_0_0 0
x7_0_60 0
x7_0_120 0
x7_0_180 0
x7_0_240 0
x7_0_300 0
x7_0_360 0
x7_0_420 0
x7_0_480 0
x7_0_540 0
x7_1_0 0
x7_1_60 0
x7_1_120 0
x7_1_180 0
x7_1_240 0
x7_1_300 0
x7_1_360 0
x7_1_420 0
x7_1_480 0
x7_1_540 0
x7_2_0 0
x7_2_60 1
x7_2_120 0
x7_2_180 0
x7_2_240 0
x7_2_300 0
x7_2_360 0
x7_2_420 0
x7_2_480 0
x7_2_540 0
x8_0_0 1
x8_0_60 0
x8_0_120 0
x8_0_180 0
x8_0_240 0
x8_0_300 0
x8_0_360 0
x8_0_420 0
x8_0_480 0
x8_0_540 0
x8_1_0 0
x8_1_60 0
x8_1_120 0
x8_1_180 0
x8_1_240 0
x8_1_300 0
x8_1_360 0
x8_1_420 0
x8_1_480 0
x8_1_540 0
x8_2_0 0
x8_2_60 0
x8_2_120 0
x8_2_180 0
x8_2_240 0
x8_2_300 0
x8_2_360 0
x8_2_420 0
x8_2_480 0
x8_2_540 0
x9_0_0 0
x9_0_60 0
x9_0_120 0
x9_0_180 0
x9_0_240 0
x9_0_300 0
x9_0_360 0
x9_0_420 0
x9_0_480 0
x9_0_540 0
x9_1_0 0
x9_1_60 1
x9_1_120 0
x9_1_180 0
x9_1_240 0
x9_1_300 0
x9_1_360 0
x9_1_420 0
x9_1_480 0
x9_1_540 0
x9_2_0 0
x9_2_60 0
x9_2_120 0
x9_2_180 0
x9_2_240 0
x9_2_300 0
x9_2_360 0
x9_2_420 0
x9_2_480 0
x9_2_540 0
x10_0_0 0
x10_0_60 1
x10_0_120 0
x10_0_180 0
x10_0_240 0
x10_0_300 0
x10_0_360 0
x10_0_420 0
x10_0_480 0
x10_0_540 0
x10_1_0 0
x10_1_60 0
x10_1_120 0
x10_1_180 0
x10_1_240 0
x10_1_300 0
x10_1_360 0
x10_1_420 0
x10_1_480 0
x10_1_540 0
x10_2_0 0
x10_2_60 0
x10_2_120 0
x10_2_180 0
x10_2_240 0
x10_2_300 0
x10_2_360 0
x10_2_420 0
x10_2_480 0
x10_2_540 0
x11_0_0 0
x11_0_60 0
x11_0_120 0
x11_0_180 0
x11_0_240 0
x11_0_300 0
x11_0_360 0
x11_0_420 0
x11_0_480 0
x11_0_540 0
x11_1_0 1
x11_1_60 0
x11_1_120 0
x11_1_180 0
x11_1_240 0
x11_1_300 0
x11_1_360 0
x11_1_420 0
x11_1_480 0
x11_1_540 0
x11_2_0 0
x11_2_60 0
x11_2_120 0
x11_2_180 0
x11_2_240 0
x11_2_300 0
x11_2_360 0
x11_2_420 0
x11_2_480 0
x11_2_540 0
x12_0_0 0
x12_0_60 0
x12_0_120 0
x12_0_180 0
x12_0_240 0
x12_0_300 0
x12_0_360 0
x12_0_420 0
x12_0_480 0
x12_0_540 0
x12_1_0 0
x12_1_60 0
x12_1_120 0
x12_1_180 0
x12_1_240 1
x12_1_300 0
x12_1_360 0
x12_1_420 0
x12_1_480 0
x12_1_540 0
x12_2_0 0
x12_2_60 0
x12_2_120 0
x12_2_180 0
x12_2_240 0
x12_2_300 0
x12_2_360 0
x12_2_420 0
x12_2_480 0
x12_2_540 0
x13_0_0 0
x13_0_60 0
x13_0_120 0
x13_0_180 0
x13_0_240 0
x13_0_300 0
x13_0_360 0
x13_0_420 0
x13_0_480 0
x13_0_540 0
x13_1_0 0
x13_1_60 0
x13_1_120 0
x13_1_180 0
x13_1_240 0
x13_1_300 0
x13_1_360 0
x13_1_420 0
x13_1_480 0
x13_1_540 0
x13_2_0 1
x13_2_60 0
x13_2_120 0
x13_2_180 0
x13_2_240 0
x13_2_300 0
x13_2_360 0
x13_2_420 0
x13_2_480 0
x13_2_540 0
x14_0_0 0
x14_0_60 0
x14_0_120 0
x14_0_180 0
x14_0_240 0
x14_0_300 0
x14_0_360 0
x14_0_420 0
x14_0_480 0
x14_0_540 0
x14_1_0 0
x14_1_60 0
x14_1_120 0
x14_1_180 0
x14_1_240 0
x14_1_300 0
x14_1_360 0
x14_1_420 0
x14_1_480 0
x14_1_540 0
x14_2_0 0
x14_2_60 0
x14_2_120 1
x14_2_180 0
x14_2_240 0
x14_2_300 0
x14_2_360 0
x14_2_420 0
x14_2_480 0
x14_2_540 0
x15_0_0 0
x15_0_60 0
x15_0_120 1
x15_0_180 0
x15_0_240 0
x15_0_300 0
x15_0_360 0
x15_0_420 0
x15_0_480 0
x15_0_540 0
x15_1_0 0
x15_1_60 0
x15_1_120 0
x15_1_180 0
x15_1_240 0
x15_1_300 0
x15_1_360 0
x15_1_420 0
x15_1_480 0
x15_1_540 0
x15_2_0 0
x15_2_60 0
x15_2_120 0
x15_2_180 0
x15_2_240 0
x15_2_300 0
x15_2_360 0
x15_2_420 0
x15_2_480 0
x15_2_540 0
x16_0_0 0
x16_0_60 0
x16_0_120 0
x16_0_180 0
x16_0_240 0
x16_0_300 0
x16_0_360 0
x16_0_420 0
x16_0_480 0
x16_0_540 0
x16_1_0 1
x16_1_60 0
x16_1_120 0
x16_1_180 0
x16_1_240 0
x16_1_300 0
x16_1_360 0
x16_1_420 0
x16_1_480 0
x16_1_540 0
x16_2_0 0
x16_2_60 0
x16_2_120 0
x16_2_180 0
x16_2_240 0
x16_2_300 0
x16_2_360 0
x16_2_420 0
x16_2_480 0
x16_2_540 0
x17_0_0 0
x17_0_60 0
x17_0_120 0
x17_0_180 0
x17_0_240 0
x17_0_300 0
x17_0_360 0
x17_0_420 0
x17_0_480 0
x17_0_540 0
x17_1_0 0
x17_1_60 0
x17_1_120 0
x17_1_180 0
x17_1_240 0
x17_1_300 0
x17_1_360 1
x17_1_420 0
x17_1_480 0
x17_1_540 0
x17_2_0 0
x17_2_60 0
x17_2_120 0
x17_2_180 0
x17_2_240 0
x17_2_300 0
x17_2_360 0
x17_2_420 0
x17_2_480 0
x17_2_540 0
x18_0_0 0
x18_0_60 0
x18_0_120 0
x18_0_180 0
x18_0_240 0
x18_0_300 0
x18_0_360 0
x18_0_420 0
x18_0_480 0
x18_0_540 0
x18_1_0 0
x18_1_60 1
x18_1_120 0
x18_1_180 0
x18_1_240 0
x18_1_300 0
x18_1_360 0
x18_1_420 0
x18_1_480 0
x18_1_540 0
x18_2_0 0
x18_2_60 0
x18_2_120 0
x18_2_180 0
x18_2_240 0
x18_2_300 0
x18_2_360 0
x18_2_420 0
x18_2_480 0
x18_2_540 0
x19_0_0 0
x19_0_60 0
x19_0_120 0
x19_0_180 0
x19_0_240 0
x19_0_300 0
x19_0_360 0
x19_0_420 0
x19_0_480 0
x19_0_540 0
x19_1_0 0
x19_1_60 0
x19_1_120 0
x19_1_180 1
x19_1_240 0
x19_1_300 0
x19_1_360 0
x19_1_420 0
x19_1_480 0
x19_1_540 0
x19_2_0 0
x19_2_60 0
x19_2_120 0
x19_2_180 0
x19_2_240 0
x19_2_300 0
x19_2_360 0
x19_2_420 0
x19_2_480 0
x19_2_540 0
x20_0_0 0
x20_0_60 0
x20_0_120 0
x20_0_180 0
x20_0_240 0
x20_0_300 0
x20_0_360 0
x20_0_420 0
x20_0_480 0
x20_0_540 0
x20_1_0 0
x20_1_60 0
x20_1_120 0
x20_1_180 0
x20_1_240 0
x20_1_300 0
x20_1_360 0
x20_1_420 0
x20_1_480 0
x20_1_540 0
x20_2_0 0
x20_2_60 1
x20_2_120 0
x20_2_180 0
x20_2_240 0
x20_2_300 0
x20_2_360 0
x20_2_420 0
x20_2_480 0
x20_2_540 0
x21_0_0 1
x21_0_60 0
x21_0_120 0
x21_0_180 0
x21_0_240 0
x21_0_300 0
x21_0_360 0
x21_0_420 0
x21_0_480 0
x21_0_540 0
x21_1_0 0
x21_1_60 0
x21_1_120 0
x21_1_180 0
x21_1_240 0
x21_1_300 0
x21_1_360 0
x21_1_420 0
x21_1_480 0
x21_1_540 0
x21_2_0 0
x21_2_60 0
x21_2_120 0
x21_2_180 0
x21_2_240 0
x21_2_300 0
x21_2_360 0
x21_2_420 0
x21_2_480 0
x21_2_540 0
x22_0_0 0
x22_0_60 0
x22_0_120 0
x22_0_180 0
x22_0_240 0
x22_0_300 0
x22_0_360 0
x22_0_420 0
x22_0_480 0
x22_0_540 0
x22_1_0 0
x22_1_60 0
x22_1_120 0
x22_1_180 0
x22_1_240 0
x22_1_300 0
x22_1_360 0
x22_1_420 0
x22_1_480 0
x22_1_540 0
x22_2_0 0
x22_2_60 0
x22_2_120 0
x22_2_180 0
x22_2_240 1
x22_2_300 0
x22_2_360 0
x22_2_420 0
x22_2_480 0
x22_2_540 0
x23_0_0 0
x23_0_60 0
x23_0_120 0
x23_0_180 1
x23_0_240 0
x23_0_300 0
x23_0_360 0
x23_0_420 0
x23_0_480 0
x23_0_540 0
x23_1_0 0
x23_1_60 0
x23_1_120 0
x23_1_180 0
x23_1_240 0
x23_1_300 0
x23_1_360 0
x23_1_420 0
x23_1_480 0
x23_1_540 0
x23_2_0 0
x23_2_60 0
x23_2_120 0
x23_2_180 0
x23_2_240 0
x23_2_300 0
x23_2_360 0
x23_2_420 0
x23_2_480 0
x23_2_540 0
x24_0_0 0
x24_0_60 0
x24_0_120 0
x24_0_180 0
x24_0_240 0
x24_0_300 0
x24_0_360 0
x24_0_420 0
x24_0_480 0
x24_0_540 0
x24_1_0 0
x24_1_60 0
x24_1_120 0
x24_1_180 0
x24_1_240 0
x24_1_300 0
x24_1_360 0
x24_1_420 0
x24_1_480 0
x24_1_540 0
x24_2_0 0
x24_2_60 0
x24_2_120 0
x24_2_180 0
x24_2_240 1
x24_2_300 0
x24_2_360 0
x24_2_420 0
x24_2_480 0
x24_2_540 0
x25_0_0 0
x25_0_60 1
x25_0_120 0
x25_0_180 0
x25_0_240 0
x25_0_300 0
x25_0_360 0
x25_0_420 0
x25_0_480 0
x25_0_540 0
x25_1_0 0
x25_1_60 0
x25_1_120 0
x25_1_180 0
x25_1_240 0
x25_1_300 0
x25_1_360 0
x25_1_420 0
x25_1_480 0
x25_1_540 0
x25_2_0 0
x25_2_60 0
x25_2_120 0
x25_2_180 0
x25_2_240 0
x25_2_300 0
x25_2_360 0
x25_2_420 0
x25_2_480 0
x25_2_540 0
x26_0_0 0
x26_0_60 0
x26_0_120 0
x26_0_180 0
x26_0_240 0
x26_0_300 0
x26_0_360 0
x26_0_420 0
x26_0_480 0
x26_0_540 0
x26_1_0 0
x26_1_60 0
x26_1_120 0
x26_1_180 0
x26_1_240 0
x26_1_300 0
x26_1_360 0
x26_1_420 0
x26_1_480 1
x26_1_540 0
x26_2_0 0
x26_2_60 0
x26_2_120 0
x26_2_180 0
x26_2_240 0
x26_2_300 0
x26_2_360 0
x26_2_420 0
x26_2_480 0
x26_2_540 0
x27_0_0 0
x27_0_60 0
x27_0_120 0
x27_0_180 0
x27_0_240 0
x27_0_300 0
x27_0_360 0
x27_0_420 0
x27_0_480 0
x27_0_540 0
x27_1_0 0
x27_1_60 0
x27_1_120 0
x27_1_180 0
x27_1_240 0
x27_1_300 0
x27_1_360 0
x27_1_420 0
x27_1_480 0
x27_1_540 0
x27_2_0 0
x27_2_60 1
x27_2_120 0
x27_2_180 0
x27_2_240 0
x27_2_300 0
x27_2_360 0
x27_2_420 0
x27_2_480 0
x27_2_540 0
x28_0_0 0
x28_0_60 0
x28_0_120 0
x28_0_180 0
x28_0_240 0
x28_0_300 0
x28_0_360 0
x28_0_420 0
x28_0_480 0
x28_0_540 0
x28_1_0 0
x28_1_60 0
x28_1_120 0
x28_1_180 0
x28_1_240 0
x28_1_300 0
x28_1_360 0
x28_1_420 0
x28_1_480 0
x28_1_540 0
x28_2_0 1
x28_2_60 0
x28_2_120 0
x28_2_180 0
x28_2_240 0
x28_2_300 0
x28_2_360 0
x28_2_420 0
x28_2_480 0
x28_2_540 0
x29_0_0 1
x29_0_60 0
x29_0_120 0
x29_0_180 0
x29_0_240 0
x29_0_300 0
x29_0_360 0
x29_0_420 0
x29_0_480 0
x29_0_540 0
x29_1_0 0
x29_1_60 0
x29_1_120 0
x29_1_180 0
x29_1_240 0
x29_1_300 0
x29_1_360 0
x29_1_420 0
x29_1_480 0
x29_1_540 0
x29_2_0 0
x29_2_60 0
x29_2_120 0
x29_2_180 0
x29_2_240 0
x29_2_300 0
x29_2_360 0
x29_2_420 0
x29_2_480 0
x29_2_540 0
x30_0_0 0
x30_0_60 0
x30_0_120 0
x30_0_180 0
x30_0_240 0
x30_0_300 0
x30_0_360 1
x30_0_420 0
x30_0_480 0
x30_0_540 0
x30_1_0 0
x30_1_60 0
x30_1_120 0
x30_1_180 0
x30_1_240 0
x30_1_300 0
x30_1_360 0
x30_1_420 0
x30_1_480 0
x30_1_540 0
x30_2_0 0
x30_2_60 0
x30_2_120 0
x30_2_180 0
x30_2_240 0
x30_2_300 0
x30_2_360 0
x30_2_420 0
x30_2_480 0
x30_2_540 0
x31_0_0 0
x31_0_60 0
x31_0_120 0
x31_0_180 0
x31_0_240 0
x31_0_300 0
x31_0_360 0
x31_0_420 0
x31_0_480 0
x31_0_540 0
x31_1_0 0
x31_1_60 0
x31_1_120 0
x31_1_180 0
x31_1_240 1
x31_1_300 0
x31_1_360 0
x31_1_420 0
x31_1_480 0
x31_1_540 0
x31_2_0 0
x31_2_60 0
x31_2_120 0
x31_2_180 0
x31_2_240 0
x31_2_300 0
x31_2_360 0
x31_2_420 0
x31_2_480 0
x31_2_540 0
x32_0_0 0
x32_0_60 0
x32_0_120 0
x32_0_180 1
x32_0_240 0
x32_0_300 0
x32_0_360 0
x32_0_420 0
x32_0_480 0
x32_0_540 0
x32_1_0 0
x32_1_60 0
x32_1_120 0
x32_1_180 0
x32_1_240 0
x32_1_300 0
x32_1_360 0
x32_1_420 0
x32_1_480 0
x32_1_540 0
x32_2_0 0
x32_2_60 0
x32_2_120 0
x32_2_180 0
x32_2_240 0
x32_2_300 0
x32_2_360 0
x32_2_420 0
x32_2_480 0
x32_2_540 0
x33_0_0 0
x33_0_60 0
x33_0_120 0
x33_0_180 0
x33_0_240 0
x33_0_300 0
x33_0_360 0
x33_0_420 0
x33_0_480 0
x33_0_540 0
x33_1_0 0
x33_1_60 0
x33_1_120 0
x33_1_180 0
x33_1_240 0
x33_1_300 0
x33_1_360 0
x33_1_420 0
x33_1_480 0
x33_1_540 0
x33_2_0 0
x33_2_60 0
x33_2_120 0
x33_2_180 0
x33_2_240 0
x33_2_300 0
x33_2_360 0
x33_2_420 1
x33_2_480 0
x33_2_540 0
x34_0_0 0
x34_0_60 0
x34_0_120 0
x34_0_180 0
x34_0_240 0
x34_0_300 0
x34_0_360 0
x34_0_420 0
x34_0_480 0
x34_0_540 0
x34_1_0 0
x34_1_60 0
x34_1_120 0
x34_1_180 0
x34_1_240 0
x34_1_300 0
x34_1_360 0
x34_1_420 0
x34_1_480 0
x34_1_540 1
x34_2_0 0
x34_2_60 0
x34_2_120 0
x34_2_180 0
x34_2_240 0
x34_2_300 0
x34_2_360 0
x34_2_420 0
x34_2_480 0
x34_2_540 0
x35_0_0 0
x35_0_60 0
x35_0_120 0
x35_0_180 0
x35_0_240 0
x35_0_300 0
x35_0_360 0
x35_0_420 0
x35_0_480 0
x35_0_540 0
x35_1_0 0
x35_1_60 0
x35_1_120 0
x35_1_180 0
x35_1_240 0
x35_1_300 0
x35_1_360 0
x35_1_420 0
x35_1_480 0
x35_1_540 0
x35_2_0 0
x35_2_60 1
x35_2_120 0
x35_2_180 0
x35_2_240 0
x35_2_300 0
x35_2_360 0
x35_2_420 0
x35_2_480 0
x35_2_540 0
x36_0_0 0
x36_0_60 0
x36_0_120 0
x36_0_180 0
x36_0_240 0
x36_0_300 0
x36_0_360 0
x36_0_420 1
x36_0_480 0
x36_0_540 0
x36_1_0 0
x36_1_60 0
x36_1_120 0
x36_1_180 0
x36_1_240 0
x36_1_300 0
x36_1_360 0
x36_1_420 0
x36_1_480 0
x36_1_540 0
x36_2_0 0
x36_2_60 0
x36_2_120 0
x36_2_180 0
x36_2_240 0
x36_2_300 0
x36_2_360 0
x36_2_420 0
x36_2_480 0
x36_2_540 0
x37_0_0 0
x37_0_60 0
x37_0_120 0
x37_0_180 0
x37_0_240 0
x37_0_300 0
x37_0_360 0
x37_0_420 0
x37_0_480 0
x37_0_540 0
x37_1_0 0
x37_1_60 0
x37_1_120 0
x37_1_180 0
x37_1_240 0
x37_1_300 0
x37_1_360 0
x37_1_420 0
x37_1_480 1
x37_1_540 0
x37_2_0 0
x37_2_60 0
x37_2_120 0
x37_2_180 0
x37_2_240 0
x37_2_300 0
x37_2_360 0
x37_2_420 0
x37_2_480 0
x37_2_540 0
x38_0_0 1
x38_0_60 0
x38_0_120 0
x38_0_180 0
x38_0_240 0
x38_0_300 0
x38_0_360 0
x38_0_420 0
x38_0_480 0
x38_0_540 0
x38_1_0 0
x38_1_60 0
x38_1_120 0
x38_1_180 0
x38_1_240 0
x38_1_300 0
x38_1_360 0
x38_1_420 0
x38_1_480 0
x38_1_540 0
x38_2_0 0
x38_2_60 0
x38_2_120 0
x38_2_180 0
x38_2_240 0
x38_2_300 0
x38_2_360 0
x38_2_420 0
x38_2_480 0
x38_2_540 0
x39_0_0 0
x39_0_60 0
x39_0_120 0
x39_0_180 0
x39_0_240 0
x39_0_300 0
x39_0_360 0
x39_0_420 0
x39_0_480 0
x39_0_540 0
x39_1_0 0
x39_1_60 0
x39_1_120 0
x39_1_180 0
x39_1_240 0
x39_1_300 0
x39_1_360 0
x39_1_420 0
x39_1_480 0
x39_1_540 0
x39_2_0 0
x39_2_60 1
x39_2_120 0
x39_2_180 0
x39_2_240 0
x39_2_300 0
x39_2_360 0
x39_2_420 0
x39_2_480 0
x39_2_540 0
x40_0_0 0
x40_0_60 0
x40_0_120 0
x40_0_180 0
x40_0_240 0
x40_0_300 0
x40_0_360 0
x40_0_420 0
x40_0_480 0
x40_0_540 0
x40_1_0 1
x40_1_60 0
x40_1_120 0
x40_1_180 0
x40_1_240 0
x40_1_300 0
x40_1_360 0
x40_1_420 0
x40_1_480 0
x40_1_540 0
x40_2_0 0
x40_2_60 0
x40_2_120 0
x40_2_180 0
x40_2_240 0
x40_2_300 0
x40_2_360 0
x40_2_420 0
x40_2_480 0
x40_2_540 0
x41_0_0 0
x41_0_60 0
x41_0_120 0
x41_0_180 0
x41_0_240 0
x41_0_300 0
x41_0_360 0
x41_0_420 0
x41_0_480 0
x41_0_540 0
x41_1_0 0
x41_1_60 0
x41_1_120 0
x41_1_180 0
x41_1_240 0
x41_1_300 0
x41_1_360 0
x41_1_420 0
x41_1_480 1
x41_1_540 0
x41_2_0 0
x41_2_60 0
x41_2_120 0
x41_2_180 0
x41_2_240 0
x41_2_300 0
x41_2_360 0
x41_2_420 0
x41_2_480 0
x41_2_540 0
x42_0_0 1
x42_0_60 0
x42_0_120 0
x42_0_180 0
x42_0_240 0
x42_0_300 0
x42_0_360 0
x42_0_420 0
x42_0_480 0
x42_0_540 0
x42_1_0 0
x42_1_60 0
x42_1_120 0
x42_1_180 0
x42_1_240 0
x42_1_300 0
x42_1_360 0
x42_1_420 0
x42_1_480 0
x42_1_540 0
x42_2_0 0
x42_2_60 0
x42_2_120 0
x42_2_180 0
x42_2_240 0
x42_2_300 0
x42_2_360 0
x42_2_420 0
x42_2_480 0
x42_2_540 0
x43_0_0 0
x43_0_60 0
x43_0_120 0
x43_0_180 0
x43_0_240 0
x43_0_300 0
x43_0_360 0
x43_0_420 0
x43_0_480 0
x43_0_540 0
x43_1_0 0
x43_1_60 0
x43_1_120 0
x43_1_180 0
x43_1_240 0
x43_1_300 0
x43_1_360 0
x43_1_420 0
x43_1_480 0
x43_1_540 0
x43_2_0 0
x43_2_60 0
x43_2_120 0
x43_2_180 0
x43_2_240 0
x43_2_300 0
x43_2_360 0
x43_2_420 0
x43_2_480 1
x43_2_540 0
x44_0_0 0
x44_0_60 1
x44_0_120 0
x44_0_180 0
x44_0_240 0
x44_0_300 0
x44_0_360 0
x44_0_420 0
x44_0_480 0
x44_0_540 0
x44_1_0 0
x44_1_60 0
x44_1_120 0
x44_1_180 0
x44_1_240 0
x44_1_300 0
x44_1_360 0
x44_1_420 0
x44_1_480 0
x44_1_540 0
x44_2_0 0
x44_2_60 0
x44_2_120 0
x44_2_180 0
x44_2_240 0
x44_2_300 0
x44_2_360 0
x44_2_420 0
x44_2_480 0
x44_2_540 0
x45_0_0 0
x45_0_60 0
x45_0_120 1
x45_0_180 0
x45_0_240 0
x45_0_300 0
x45_0_360 0
x45_0_420 0
x45_0_480 0
x45_0_540 0
x45_1_0 0
x45_1_60 0
x45_1_120 0
x45_1_180 0
x45_1_240 0
x45_1_300 0
x45_1_360 0
x45_1_420 0
x45_1_480 0
x45_1_540 0
x45_2_0 0
x45_2_60 0
x45_2_120 0
x45_2_180 0
x45_2_240 0
x45_2_300 0
x45_2_360 0
x45_2_420 0
x45_2_480 0
x45_2_540 0
x46_0_0 0
x46_0_60 0
x46_0_120 0
x46_0_180 0
x46_0_240 1
x46_0_300 0
x46_0_360 0
x46_0_420 0
x46_0_480 0
x46_0_540 0
x46_1_0 0
x46_1_60 0
x46_1_120 0
x46_1_180 0
x46_1_240 0
x46_1_300 0
x46_1_360 0
x46_1_420 0
x46_1_480 0
x46_1_540 0
x46_2_0 0
x46_2_60 0
x46_2_120 0
x46_2_180 0
x46_2_240 0
x46_2_300 0
x46_2_360 0
x46_2_420 0
x46_2_480 0
x46_2_540 0
x47_0_0 0
x47_0_60 0
x47_0_120 0
x47_0_180 0
x47_0_240 0
x47_0_300 0
x47_0_360 0
x47_0_420 0
x47_0_480 1
x47_0_540 0
x47_1_0 0
x47_1_60 0
x47_1_120 0
x47_1_180 0
x47_1_240 0
x47_1_300 0
x47_1_360 0
x47_1_420 0
x47_1_480 0
x47_1_540 0
x47_2_0 0
x47_2_60 0
x47_2_120 0
x47_2_180 0
x47_2_240 0
x47_2_300 0
x47_2_360 0
x47_2_420 0
x47_2_480 0
x47_2_540 0
x48_0_0 0
x48_0_60 0
x48_0_120 0
x48_0_180 0
x48_0_240 0
x48_0_300 0
x48_0_360 0
x48_0_420 0
x48_0_480 0
x48_0_540 0
x48_1_0 0
x48_1_60 0
x48_1_120 0
x48_1_180 0
x48_1_240 0
x48_1_300 0
x48_1_360 0
x48_1_420 0
x48_1_480 0
x48_1_540 0
x48_2_0 0
x48_2_60 0
x48_2_120 0
x48_2_180 1
x48_2_240 0
x48_2_300 0
x48_2_360 0
x48_2_420 0
x48_2_480 0
x48_2_540 0
x49_0_0 0
x49_0_60 0
x49_0_120 0
x49_0_180 0
x49_0_240 0
x49_0_300 0
x49_0_360 0
x49_0_420 0
x49_0_480 0
x49_0_540 0
x49_1_0 0
x49_1_60 0
x49_1_120 0
x49_1_180 0
x49_1_240 0
x49_1_300 0
x49_1_360 0
x49_1_420 0
x49_1_480 1
x49_1_540 0
x49_2_0 0
x49_2_60 0
x49_2_120 0
x49_2_180 0
x49_2_240 0
x49_2_300 0
x49_2_360 0
x49_2_420 0
x49_2_480 0
x49_2_540 0
x50_0_0 0
x50_0_60 0
x50_0_120 0
x50_0_180 0
x50_0_240 0
x50_0_300 0
x50_0_360 0
x50_0_420 0
x50_0_480 0
x50_0_540 0
x50_1_0 0
x50_1_60 0
x50_1_120 0
x50_1_180 1
x50_1_240 0
x50_1_300 0
x50_1_360 0
x50_1_420 0
x50_1_480 0
x50_1_540 0
x50_2_0 0
x50_2_60 0
x50_2_120 0
x50_2_180 0
x50_2_240 0
x50_2_300 0
x50_2_360 0
x50_2_420 0
x50_2_480 0
x50_2_540 0
x51_0_0 0
x51_0_60 0
x51_0_120 0
x51_0_180 0
x51_0_240 0
x51_0_300 0
x51_0_360 0
x51_0_420 0
x51_0_480 0
x51_0_540 0
x51_1_0 0
x51_1_60 0
x51_1_120 0
x51_1_180 0
x51_1_240 0
x51_1_300 0
x51_1_360 0
x51_1_420 1
x51_1_480 0
x51_1_540 0
x51_2_0 0
x51_2_60 0
x51_2_120 0
x51_2_180 0
x51_2_240 0
x51_2_300 0
x51_2_360 0
x51_2_420 0
x51_2_480 0
x51_2_540 0
x52_0_0 0
x52_0_60 0
x52_0_120 0
x52_0_180 0
x52_0_240 0
x52_0_300 0
x52_0_360 0
x52_0_420 0
x52_0_480 1
x52_0_540 0
x52_1_0 0
x52_1_60 0
x52_1_120 0
x52_1_180 0
x52_1_240 0
x52_1_300 0
x52_1_360 0
x52_1_420 0
x52_1_480 0
x52_1_540 0
x52_2_0 0
x52_2_60 0
x52_2_120 0
x52_2_180 0
x52_2_240 0
x52_2_300 0
x52_2_360 0
x52_2_420 0
x52_2_480 0
x52_2_540 0
x53_0_0 0
x53_0_60 0
x53_0_120 0
x53_0_180 0
x53_0_240 0
x53_0_300 0
x53_0_360 0
x53_0_420 0
x53_0_480 0
x53_0_540 0
x53_1_0 0
x53_1_60 0
x53_1_120 0
x53_1_180 0
x53_1_240 0
x53_1_300 0
x53_1_360 0
x53_1_420 0
x53_1_480 0
x53_1_540 0
x53_2_0 0
x53_2_60 0
x53_2_120 0
x53_2_180 0
x53_2_240 0
x53_2_300 0
x53_2_360 1
x53_2_420 0
x53_2_480 0
x53_2_540 0
x54_0_0 0
x54_0_60 0
x54_0_120 0
x54_0_180 1
x54_0_240 0
x54_0_300 0
x54_0_360 0
x54_0_420 0
x54_0_480 0
x54_0_540 0
x54_1_0 0
x54_1_60 0
x54_1_120 0
x54_1_180 0
x54_1_240 0
x54_1_300 0
x54_1_360 0
x54_1_420 0
x54_1_480 0
x54_1_540 0
x54_2_0 0
x54_2_60 0
x54_2_120 0
x54_2_180 0
x54_2_240 0
x54_2_300 0
x54_2_360 0
x54_2_420 0
x54_2_480 0
x54_2_540 0
x55_0_0 0
x55_0_60 0
x55_0_120 0
x55_0_180 0
x55_0_240 0
x55_0_300 0
x55_0_360 0
x55_0_420 0
x55_0_480 0
x55_0_540 1
x55_1_0 0
x55_1_60 0
x55_1_120 0
x55_1_180 0
x55_1_240 0
x55_1_300 0
x55_1_360 0
x55_1_420 0
x55_1_480 0
x55_1_540 0
x55_2_0 0
x55_2_60 0
x55_2_120 0
x55_2_180 0
x55_2_240 0
x55_2_300 0
x55_2_360 0
x55_2_420 0
x55_2_480 0
x55_2_540 0
x56_0_0 0
x56_0_60 0
x56_0_120 0
x56_0_180 0
x56_0_240 0
x56_0_300 0
x56_0_360 0
x56_0_420 0
x56_0_480 0
x56_0_540 0
x56_1_0 0
x56_1_60 0
x56_1_120 0
x56_1_180 0
x56_1_240 0
x56_1_300 0
x56_1_360 0
x56_1_420 0
x56_1_480 0
x56_1_540 0
x56_2_0 0
x56_2_60 0
x56_2_120 0
x56_2_180 0
x56_2_240 0
x56_2_300 0
x56_2_360 0
x56_2_420 0
x56_2_480 1
x56_2_540 0
x57_0_0 0
x57_0_60 0
x57_0_120 0
x57_0_180 0
x57_0_240 0
x57_0_300 0
x57_0_360 0
x57_0_420 0
x57_0_480 0
x57_0_540 0
x57_1_0 1
x57_1_60 0
x57_1_120 0
x57_1_180 0
x57_1_240 0
x57_1_300 0
x57_1_360 0
x57_1_420 0
x57_1_480 0
x57_1_540 0
x57_2_0 0
x57_2_60 0
x57_2_120 0
x57_2_180 0
x57_2_240 0
x57_2_300 0
x57_2_360 0
x57_2_420 0
x57_2_480 0
x57_2_540 0
x58_0_0 0
x58_0_60 0
x58_0_120 0
x58_0_180 0
x58_0_240 0
x58_0_300 0
x58_0_360 0
x58_0_420 0
x58_0_480 0
x58_0_540 0
x58_1_0 0
x58_1_60 0
x58_1_120 0
x58_1_180 0
x58_1_240 0
x58_1_300 0
x58_1_360 0
x58_1_420 0
x58_1_480 0
x58_1_540 0
x58_2_0 0
x58_2_60 0
x58_2_120 0
x58_2_180 0
x58_2_240 0
x58_2_300 1
x58_2_360 0
x58_2_420 0
x58_2_480 0
x58_2_540 0
x59_0_0 0
x59_0_60 0
x59_0_120 0
x59_0_180 0
x59_0_240 0
x59_0_300 0
x59_0_360 0
x59_0_420 0
x59_0_480 0
x59_0_540 0
x59_1_0 0
x59_1_60 0
x59_1_120 0
x59_1_180 0
x59_1_240 0
x59_1_300 0
x59_1_360 0
x59_1_420 0
x59_1_480 0
x59_1_540 0
x59_2_0 0
x59_2_60 1
x59_2_120 0
x59_2_180 0
x59_2_240 0
x59_2_300 0
x59_2_360 0
x59_2_420 0
x59_2_480 0
x59_2_540 0
